
 Patch Test                                                                      

 C O N T R O L   I N F O R M A T I O N

      NUMBER OF NODAL POINTS . . . . . . . . . . (NUMNP)  =    27
      NUMBER OF ELEMENT GROUPS . . . . . . . . . (NUMEG)  =     1
      NUMBER OF LOAD CASES . . . . . . . . . . . (NLCASE) =     1
      SOLUTION MODE  . . . . . . . . . . . . . . (MODEX)  =     1
         EQ.0, DATA CHECK
         EQ.1, EXECUTION


 N O D A L   P O I N T   D A T A

  NODE          BOUNDARY                         NODAL POINT
 NUMBER     CONDITION  CODES                     COORDINATES
               X    Y    Z               X            Y            Z
    1          0    0    0              0.000        0.000       10.000
    2          0    0    0              5.000        0.000       10.000
    3          0    0    0             10.000        0.000       10.000
    4          0    0    0              0.000        5.000       10.000
    5          0    0    0              5.000        5.000       10.000
    6          0    0    0             10.000        5.000       10.000
    7          0    0    0              0.000       10.000       10.000
    8          0    0    0              5.000       10.000       10.000
    9          0    0    0             10.000       10.000       10.000
   10          0    0    0              0.000        0.000        5.000
   11          0    0    0              5.000        0.000        5.000
   12          0    0    0             10.000        0.000        5.000
   13          0    0    0              0.000        5.000        5.000
   14          0    0    0              5.000        0.000        7.000
   15          0    0    0             10.000        5.000        5.000
   16          0    0    0              0.000       10.000        5.000
   17          0    0    0              5.000       10.000        5.000
   18          0    0    0             10.000       10.000        5.000
   19          1    1    1              0.000        0.000        0.000
   20          0    1    1              5.000        0.000        0.000
   21          0    1    1             10.000        0.000        0.000
   22          1    0    1              0.000        5.000        0.000
   23          0    0    1              5.000        5.000        0.000
   24          0    0    1             10.000        5.000        0.000
   25          1    0    1              0.000       10.000        0.000
   26          0    0    1              5.000       10.000        0.000
   27          0    0    1             10.000       10.000        0.000


 EQUATION NUMBERS

   NODE         DEGREES OF FREEDOM
  NUMBER
     N             X    Y    Z
     1             1    2    3
     2             4    5    6
     3             7    8    9
     4            10   11   12
     5            13   14   15
     6            16   17   18
     7            19   20   21
     8            22   23   24
     9            25   26   27
    10            28   29   30
    11            31   32   33
    12            34   35   36
    13            37   38   39
    14            40   41   42
    15            43   44   45
    16            46   47   48
    17            49   50   51
    18            52   53   54
    19             0    0    0
    20            55    0    0
    21            56    0    0
    22             0   57    0
    23            58   59    0
    24            60   61    0
    25             0   62    0
    26            63   64    0
    27            65   66    0


 L O A D   C A S E   D A T A

     LOAD CASE NUMBER . . . . . . . =     1
     NUMBER OF CONCENTRATED LOADS . =     9

    NODE       DIRECTION      LOAD
   NUMBER                   MAGNITUDE
      9            3        0.00000E+00
      8            3        0.00000E+00
      7            3        0.00000E+00
      6            3        0.00000E+00
      5            3        0.00000E+00
      4            3        0.00000E+00
      3            3        0.00000E+00
      2            3        0.00000E+00
      1            3        0.00000E+00


 E L E M E N T   G R O U P   D A T A


 E L E M E N T   D E F I N I T I O N

 ELEMENT TYPE  . . . . . . . . . . . . .( NPAR(1) ) . . =         1
     EQ.1, 3D HEXAHEDRAL
 NUMBER OF ELEMENTS. . . . . . . . . . .( NPAR(2) ) . . =         8

 M A T E R I A L   D E F I N I T I O N

 NUMBER OF DIFFERENT SETS OF MATERIAL
 AND CROSS-SECTIONAL  CONSTANTS  . . . .( NPAR(3) ) . . =         1

  SET       YOUNG'S MODULUS    POISSON RATIO     DENSITY (RHO)
 NUMBER         E (Pa)               ν              ρ (kg/m^3)
---------------------------------------------------------------
       1      0.10000E+04     0.250000E+00     0.100000E+04


 E L E M E N T   I N F O R M A T I O N

 ELEMENT        |------------------------- NODES -------------------------|       MATERIAL
 NUMBER-N        1       2       3       4       5       6       7       8       SET NUMBER
      1           1       4       5       2      10      13      14      11             1
      2           4       7       8       5      13      16      17      14             1
      3           2       5       6       3      11      14      15      12             1
      4           5       8       9       6      14      17      18      15             1
      5          10      13      14      11      19      22      23      20             1
      6          13      16      17      14      22      25      26      23             1
      7          11      14      15      12      20      23      24      21             1
      8          14      17      18      15      23      26      27      24             1


 TOTAL SYSTEM DATA

     NUMBER OF EQUATIONS . . . . . . . . . . . . . .(NEQ) =    66
     NUMBER OF MATRIX ELEMENTS . . . . . . . . . . .(NWK) =  1611
     MAXIMUM HALF BANDWIDTH  . . . . . . . . . . . .(MK ) =    42
     MEAN HALF BANDWIDTH . . . . . . . . . . . . . .(MM ) =    24


 LOAD CASE     1


 D E F O R M E D  P O S I T I O N

  NODE           X-POSITION        Y-POSITION        Z-POSITION    
   1              0.332010E-14     -0.159872E-13      0.100000E+02
   2              0.500000E+01     -0.150990E-13      0.100000E+02
   3              0.100000E+02     -0.177636E-14      0.100000E+02
   4              0.732747E-14      0.500000E+01      0.100000E+02
   5              0.500000E+01      0.500000E+01      0.100000E+02
   6              0.100000E+02      0.500000E+01      0.100000E+02
   7             -0.102141E-13      0.100000E+02      0.100000E+02
   8              0.500000E+01      0.100000E+02      0.100000E+02
   9              0.100000E+02      0.100000E+02      0.100000E+02
  10              0.852251E-14     -0.159039E-13      0.500000E+01
  11              0.500000E+01     -0.106581E-13      0.500000E+01
  12              0.100000E+02      0.160982E-14      0.500000E+01
  13              0.888178E-15      0.500000E+01      0.500000E+01
  14              0.500000E+01     -0.102141E-13      0.700000E+01
  15              0.100000E+02      0.500000E+01      0.500000E+01
  16             -0.888178E-15      0.100000E+02      0.500000E+01
  17              0.500000E+01      0.100000E+02      0.500000E+01
  18              0.100000E+02      0.100000E+02      0.500000E+01
  19              0.000000E+00      0.000000E+00      0.000000E+00
  20              0.500000E+01      0.000000E+00      0.000000E+00
  21              0.100000E+02      0.000000E+00      0.000000E+00
  22              0.000000E+00      0.500000E+01      0.000000E+00
  23              0.500000E+01      0.500000E+01      0.000000E+00
  24              0.100000E+02      0.500000E+01      0.000000E+00
  25              0.000000E+00      0.100000E+02      0.000000E+00
  26              0.500000E+01      0.100000E+02      0.000000E+00
  27              0.100000E+02      0.100000E+02      0.000000E+00


 S T R E S S  C A L C U L A T I O N S  F O R  E L E M E N T  G R O U P   1

  ELEMENT             COORDINSTES                   Sigma_xx         Sigma_yy         Sigma_zz         Sigma_xy         Sigma_yz         Sigma_xz
  NUMBER        X          Y          Z
     1       3.9434       1.4906       7.0377     0.200000E+04     0.200000E+04     0.200000E+04     0.107803E-11     0.355271E-12     0.213163E-11
             3.9434       3.2861       9.2063     0.200000E+04     0.200000E+04     0.200000E+04    -0.271782E-12     0.104361E-11     0.388578E-13
             1.0566       3.2861       6.3195     0.200000E+04     0.200000E+04     0.200000E+04     0.143703E-12     0.133227E-12     0.305311E-12
             1.0566       3.7673       9.0138     0.200000E+04     0.200000E+04     0.200000E+04     0.859450E-12     0.627276E-12    -0.111022E-12
             3.9434       0.3994       6.3195     0.200000E+04     0.200000E+04     0.200000E+04    -0.542368E-12     0.142109E-11     0.444089E-13
             3.9434       0.8805       9.0138     0.200000E+04     0.200000E+04     0.200000E+04    -0.936305E-12     0.865974E-12    -0.377476E-12
             1.0566       0.8805       6.1271     0.200000E+04     0.200000E+04     0.200000E+04    -0.137681E-12     0.754952E-12    -0.532907E-12
             1.0566       1.0094       8.9623     0.200000E+04     0.200000E+04     0.200000E+04     0.341271E-12     0.877076E-12    -0.999201E-12

     2       3.9434       8.2861       6.3195     0.200000E+04     0.200000E+04     0.200000E+04    -0.137416E-11     0.124345E-11     0.821565E-12
             3.9434       8.7673       9.0138     0.200000E+04     0.200000E+04     0.200000E+04    -0.577050E-12     0.146549E-11     0.716094E-12
             1.0566       8.7673       6.1271     0.200000E+04     0.200000E+04     0.200000E+04    -0.681183E-12     0.666134E-13    -0.222045E-12
             1.0566       8.8962       8.9623     0.200000E+04     0.200000E+04     0.200000E+04    -0.121461E-11    -0.388578E-13    -0.111022E-12
             3.9434       3.6038       7.0377     0.200000E+04     0.200000E+04     0.200000E+04    -0.562615E-12     0.266454E-12     0.444089E-12
             3.9434       5.3994       9.2063     0.200000E+04     0.200000E+04     0.200000E+04    -0.252340E-12     0.310862E-12     0.444089E-13
             1.0566       5.3994       6.3195     0.200000E+04     0.200000E+04     0.200000E+04     0.141708E-12    -0.865974E-12     0.888178E-13
             1.0566       5.8805       9.0138     0.200000E+04     0.200000E+04     0.200000E+04    -0.717042E-12    -0.877076E-12     0.555112E-12

     3       8.9434       3.2861       6.3195     0.200000E+04     0.200000E+04     0.200000E+04     0.336615E-12     0.000000E+00    -0.444089E-12
             8.9434       3.7673       9.0138     0.200000E+04     0.200000E+04     0.200000E+04    -0.383347E-12    -0.444089E-13     0.444089E-13
             6.0566       1.4906       7.0377     0.200000E+04     0.200000E+04     0.200000E+04    -0.261470E-11     0.532907E-12    -0.976996E-12
             6.0566       3.2861       9.2063     0.200000E+04     0.200000E+04     0.200000E+04    -0.508334E-12     0.588418E-12     0.410783E-12
             8.9434       0.8805       6.1271     0.200000E+04     0.200000E+04     0.200000E+04     0.357494E-12     0.888178E-13     0.710543E-12
             8.9434       1.0094       8.9623     0.200000E+04     0.200000E+04     0.200000E+04    -0.402168E-12    -0.111022E-12     0.999201E-12
             6.0566       0.3994       6.3195     0.200000E+04     0.200000E+04     0.200000E+04    -0.447724E-12     0.111022E-11     0.621725E-12
             6.0566       0.8805       9.0138     0.200000E+04     0.200000E+04     0.200000E+04    -0.112833E-12     0.538458E-12     0.102141E-11

     4       8.9434       8.7673       6.1271     0.200000E+04     0.200000E+04     0.200000E+04     0.932587E-12    -0.159872E-11     0.115463E-11
             8.9434       8.8962       8.9623     0.200000E+04     0.200000E+04     0.200000E+04     0.150990E-11    -0.117684E-11     0.893730E-12
             6.0566       8.2861       6.3195     0.200000E+04     0.200000E+04     0.200000E+04     0.104361E-11     0.288658E-12    -0.222045E-13
             6.0566       8.7673       9.0138     0.200000E+04     0.200000E+04     0.200000E+04     0.366374E-12     0.119349E-11    -0.177636E-12
             8.9434       5.3994       6.3195     0.200000E+04     0.200000E+04     0.200000E+04    -0.177636E-12    -0.106581E-11    -0.888178E-13
             8.9434       5.8805       9.0138     0.200000E+04     0.200000E+04     0.200000E+04     0.164313E-11    -0.333067E-12    -0.688338E-12
             6.0566       3.6038       7.0377     0.200000E+04     0.200000E+04     0.200000E+04     0.177636E-12     0.244249E-12    -0.177636E-12
             6.0566       5.3994       9.2063     0.200000E+04     0.200000E+04     0.200000E+04     0.355271E-12     0.571765E-12    -0.732747E-12

     5       3.9434       3.2861       1.3195     0.200000E+04     0.200000E+04     0.200000E+04    -0.710543E-12    -0.105471E-11     0.444089E-12
             3.9434       1.4906       4.9245     0.200000E+04     0.200000E+04     0.200000E+04    -0.621725E-12     0.222045E-12     0.266454E-12
             1.0566       3.7673       1.1271     0.200000E+04     0.200000E+04     0.200000E+04    -0.111022E-12    -0.976996E-12     0.355271E-12
             1.0566       3.2861       4.2063     0.200000E+04     0.200000E+04     0.200000E+04    -0.177636E-12    -0.244249E-12     0.266454E-12
             3.9434       0.8805       1.1271     0.200000E+04     0.200000E+04     0.200000E+04    -0.621725E-12    -0.148215E-11     0.532907E-12
             3.9434       0.3994       4.2063     0.200000E+04     0.200000E+04     0.200000E+04    -0.699441E-12    -0.166533E-12     0.621725E-12
             1.0566       1.0094       1.0755     0.200000E+04     0.200000E+04     0.200000E+04    -0.222045E-12    -0.180966E-11     0.976996E-12
             1.0566       0.8805       4.0138     0.200000E+04     0.200000E+04     0.200000E+04    -0.277556E-12    -0.113798E-11     0.910383E-12

     6       3.9434       8.7673       1.1271     0.200000E+04     0.200000E+04     0.200000E+04    -0.377476E-12    -0.621725E-12    -0.111022E-12
             3.9434       8.2861       4.2063     0.200000E+04     0.200000E+04     0.200000E+04    -0.121014E-11    -0.244249E-12     0.222045E-13
             1.0566       8.8962       1.0755     0.200000E+04     0.200000E+04     0.200000E+04     0.621725E-12     0.133227E-12    -0.555112E-13
             1.0566       8.7673       4.0138     0.200000E+04     0.200000E+04     0.200000E+04    -0.149880E-12     0.138778E-12     0.177636E-12
             3.9434       5.3994       1.3195     0.200000E+04     0.200000E+04     0.200000E+04    -0.621725E-12     0.000000E+00     0.888178E-13
             3.9434       3.6038       4.9245     0.200000E+04     0.200000E+04     0.200000E+04    -0.976996E-12     0.177636E-12     0.000000E+00
             1.0566       5.8805       1.1271     0.200000E+04     0.200000E+04     0.200000E+04     0.266454E-12    -0.599520E-12     0.155431E-12
             1.0566       5.3994       4.2063     0.200000E+04     0.200000E+04     0.200000E+04     0.177636E-12    -0.444089E-13    -0.244249E-12

     7       8.9434       3.7673       1.1271     0.200000E+04     0.200000E+04     0.200000E+04    -0.177636E-12    -0.355271E-12    -0.177636E-12
             8.9434       3.2861       4.2063     0.200000E+04     0.200000E+04     0.200000E+04    -0.222045E-12     0.177636E-12     0.222045E-12
             6.0566       3.2861       1.3195     0.200000E+04     0.200000E+04     0.200000E+04     0.399680E-12    -0.710543E-12     0.488498E-12
             6.0566       1.4906       4.9245     0.200000E+04     0.200000E+04     0.200000E+04     0.133227E-12     0.477396E-12     0.199840E-12
             8.9434       1.0094       1.0755     0.200000E+04     0.200000E+04     0.200000E+04    -0.124345E-11    -0.444089E-13    -0.177636E-12
             8.9434       0.8805       4.0138     0.200000E+04     0.200000E+04     0.200000E+04     0.888178E-13     0.466294E-12    -0.177636E-12
             6.0566       0.8805       1.1271     0.200000E+04     0.200000E+04     0.200000E+04    -0.488498E-12    -0.995037E-12     0.488498E-12
             6.0566       0.3994       4.2063     0.200000E+04     0.200000E+04     0.200000E+04    -0.258127E-12     0.141553E-12     0.399680E-12

     8       8.9434       8.8962       1.0755     0.200000E+04     0.200000E+04     0.200000E+04     0.111022E-12     0.421885E-12    -0.888178E-13
             8.9434       8.7673       4.0138     0.200000E+04     0.200000E+04     0.200000E+04     0.521805E-12     0.488498E-12    -0.666134E-12
             6.0566       8.7673       1.1271     0.200000E+04     0.200000E+04     0.200000E+04    -0.222045E-13    -0.555112E-12    -0.621725E-12
             6.0566       8.2861       4.2063     0.200000E+04     0.200000E+04     0.200000E+04     0.899281E-12    -0.199840E-12    -0.754952E-12
             8.9434       5.8805       1.1271     0.200000E+04     0.200000E+04     0.200000E+04     0.000000E+00    -0.266454E-12     0.000000E+00
             8.9434       5.3994       4.2063     0.200000E+04     0.200000E+04     0.200000E+04    -0.155431E-12    -0.355271E-12     0.532907E-12
             6.0566       5.3994       1.3195     0.200000E+04     0.200000E+04     0.200000E+04     0.266454E-12    -0.222045E-13     0.444089E-13
             6.0566       3.6038       4.9245     0.200000E+04     0.200000E+04     0.200000E+04     0.333067E-12     0.288658E-12    -0.133227E-12



 S O L U T I O N   T I M E   L O G   I N   S E C

     TIME FOR INPUT PHASE  . . . . . . . . . . . . . . =        0.00
     TIME FOR CALCULATION OF STIFFNESS MATRIX  . . . . =        0.00
     TIME FOR FACTORIZATION OF STIFFNESS MATRIX  . . . =        0.00
     TIME FOR LOAD CASE SOLUTIONS  . . . . . . . . . . =        0.00

      T O T A L   S O L U T I O N   T I M E  . . . . . =        0.00
